44 450
1 2 3 4 11 14 15 16 19 25 26 34 35 38 39 40 41 43
0 2 3 4 6 9 11 14 15 21 22 25 32 37 38 39 40 41
0 1 3 5 8 9 10 12 15 16 17 18 19 20 22 23 28 29 31 33 34 35 37 38 39 40 41 43
0 1 2 4 8 14 15 16 17 19 24 25 26 27 29 31 33 34 37 38 39 41
0 1 3 5 6 7 9 10 11 14 15 16 17 18 23 24 25 30 35 38 41 42
2 4 8 13 15 16 18 20 21 22 25 26 27 28 40
1 4 9 10 11 18 20 25 26 28 29 35 37 39 42 43
4 8 12 13 16 18 24 29 32 34 35 37 42 43
2 3 5 7 12 15 17 20 22 23 27 33 37 38 39 40
1 2 4 6 10 12 16 18 19 21 23 25 28 29 30 32 33 34 36 38 39 41
2 4 6 9 12 13 14 15 18 19 27 28 30 31 37 43
0 1 4 6 12 15 19 23 24 25 26 28 31 35 37 40 41 43
2 7 8 9 10 11 13 14 15 16 19 20 21 22 24 25 26 27 28 29 30 31 33 36 37 40
5 7 10 12 14 15 16 17 18 19 22 24 25 26 29 34 35 36 38 39 40 41 42 43
0 1 3 4 10 12 13 15 17 24 26 29 30 34 35 36 37 41 42
0 1 2 3 4 5 8 10 11 12 13 14 21 23 24 29 31 32 33 34 35 36 37 40 41 42 43
0 2 3 4 5 7 9 12 13 17 20 21 22 25 27 29 31 32 35 36 39 41 43
2 3 4 8 13 14 16 19 21 22 23 25 26 27 30 31 32 33 35 38 39 40 42
2 4 5 6 7 9 10 13 21 24 25 27 28 31 32 33 34 35 36 38 39 40 41 43
0 2 3 9 10 11 12 13 17 23 26 27 28 29 30 31 32 34 35 37 38
2 5 6 8 12 16 21 23 26 28 31 32 33 35 38 40 41 42 43
1 5 9 12 15 16 17 18 20 23 25 26 27 28 31 35 36 40 43
1 2 5 8 12 13 16 17 25 26 29 30 32 35 37 38 39 40 41 42
2 4 8 9 11 15 17 19 20 21 28 29 32 34 37 42 43
3 4 7 11 12 13 14 15 18 27 29 30 31 33 34 35 36 37 38 39 42
0 1 3 4 5 6 9 11 12 13 16 17 18 21 22 26 27 33 34 39 42
0 3 5 6 11 12 13 14 17 19 20 21 22 25 30 31 33 34 38
3 5 8 10 12 16 17 18 19 21 24 25 29 30 32 33 34 36 37 38 41 43
2 5 6 9 10 11 12 18 19 20 21 23 29 30 32 33 36 37 42
2 3 6 7 9 12 13 14 15 16 19 22 23 24 27 28 33 34 35 37 38 40 42 43
4 9 10 12 14 17 19 22 24 26 27 28 34 37 39 40
2 3 10 11 12 15 16 17 18 19 20 21 24 26 33 36 37 40 41
1 7 9 15 16 17 18 19 20 22 23 27 28 35 36 38 39 42
2 3 8 9 12 15 17 18 20 24 25 26 27 28 29 31 34 35 39 41
0 2 3 7 9 13 14 15 18 19 23 24 25 26 27 29 30 33 36 38 40 42
0 2 4 6 7 11 13 14 15 16 17 18 19 20 21 22 24 29 32 33 36 37 39 43
9 12 13 14 15 16 18 21 24 27 28 31 32 34 35 41 42 43
1 2 3 6 7 8 10 11 12 14 15 19 22 23 24 27 28 29 30 31 35 38 42 43
0 1 2 3 4 8 9 13 17 18 19 20 22 24 26 27 29 32 34 37 40 42
0 1 2 3 6 8 9 13 16 17 18 22 24 25 30 32 33 35 40 43
0 1 2 5 8 11 12 13 15 17 18 20 21 22 29 30 31 34 38 39 41 43
0 1 2 3 4 9 11 13 14 15 16 18 20 22 27 31 33 36 40 42
4 6 7 13 14 15 17 20 22 23 24 25 28 29 32 34 36 37 38 41 43
0 2 6 7 10 11 13 15 16 18 20 21 23 27 29 35 36 37 39 40 42
